-9.96
-11.42
-13.86
-10.44
-15.82
-10.93
-11.42
-15.82
-14.35
-10.44
-12.40
-16.30
-11.91
-12.89
-14.84
-10.44
-23.63
-14.84
-10.44
-15.33
-13.37
-12.40
-15.82
-10.93
-14.84
-15.33
-12.40
-17.28
-11.91
-14.84
-15.82
-12.40
-17.28
-14.35
-12.89
-17.28
-16.30
-12.89
-12.89
-16.30
-16.79
-11.91
-17.77
-18.26
-15.33
-12.89
-17.77
-16.30
-12.89
-14.35
0.19
0.19
-2.63
2.-24
4.-68
4.-19
3.-22
0.-78
-5.56
-4.58
-6.05
-8.00
-8.98
-8.98
-10.44
-9.96
-10.44
-10.44
-9.96
-10.44
-10.44
-10.93
-11.42
-10.93
-11.91
-12.40
-11.91
-10.93
-11.42
-11.91
-12.40
-11.91
-11.42
-11.91
-11.91
-11.91
-12.40
-11.42
-11.91
-12.40
-11.91
-11.42
-11.91
-12.40
-12.40
-12.40
-12.40
-12.89
-12.89
-12.40
-12.89
-13.37
-13.37
-12.89
-12.89
-13.37
-13.37
-13.37
-12.89
-12.89
-13.37
-13.37
-13.37
-13.37
-13.37
-13.86
-14.35
-13.86
-13.86
-13.86
-14.35
-13.86
-13.86
-13.86
-14.35
-13.86
-13.37
-13.86
-13.86
-13.86
-13.86
-13.86
-13.86
-13.86
-14.35
-13.86
-13.86
-14.35
-14.35
-13.86
-14.35
-14.35
-14.35
-14.35
-14.35
-14.35
-14.35
-14.35
-14.84
-14.35
-14.35
-14.35
-14.35
-13.86
-14.35
-14.84
-14.35
-14.35
-14.35
-14.35
-14.84
-14.84
-14.84
-14.35
-14.35
-14.84
-14.84
-14.35
-14.84
-14.84
-15.33
-14.84
-14.84
-14.84
-14.84
-14.84
-14.84
-14.84
-14.84
-14.84
-14.84
-14.35
-14.84
-14.84
-15.33
-14.84
-14.35
-14.84
-14.35
-14.35
-14.84
-14.35
-14.84
-14.35
-14.35
-14.84
-15.33
-15.33
-14.84
-14.84
-15.33
-14.84
-15.33
-15.33
-14.84
-14.84
-15.33
-15.33
-14.84
-14.84
-15.33
-15.33
-14.84
-14.84
-14.35
-14.84
-15.33
-14.84
-14.84
-14.84
-15.33
-15.33
-14.84
-14.84
-15.33
-15.33
-14.84
-15.33
-15.33
-15.33
-15.33
-15.33
-14.84
-15.82
-15.82
-15.33
-15.33
-15.82
-15.82
-15.33
-15.82
-15.82
-15.82
-15.33
-15.82
-15.82
-15.33
-15.33
-15.33
-15.82
-15.82
-15.82
-15.82
-15.33
-15.82
-15.82
-15.33
-15.82
-15.82
-15.33
-15.82
-15.82
-15.33
-15.82
-15.82
-15.82
-15.82
-15.33
-15.82
-15.82
-15.82
-15.82
-15.82
-15.82
-15.82
-15.33
-15.33
-15.82
-15.33
-15.82
-15.82
-15.33
-15.82
-15.82
-15.82
-16.30
-16.30
-15.82
-16.30
-15.82
-15.82
-16.30
-16.30
-15.82
-15.82
-15.82
-16.79
-16.30
-15.82
-16.30
-16.30
-16.30
-15.82
-15.82
-16.30
-16.30
-15.82
-16.30
-16.30
-16.30
-15.82
-16.30
-16.30
-16.30
-15.82
-16.30
-16.79
-16.79
-16.30
-15.82
-16.30
-15.82
-16.30
-16.30
-16.30
-16.30
-15.82
-16.30
-16.79
-16.30
-15.82
-16.30
-16.79
-16.30
-16.30
-16.30
-16.30
-16.30
-21.67
-22.65
-17.28
-17.77
-22.65
-23.14
-19.72
-16.30
-18.26
-22.16
-24.12
-20.70
-16.79
-18.26
-24.60
-21.19
-19.23
-24.60
-16.79
-18.26
-24.60
-21.67
-17.28
-19.72
-25.09
-34.37
-15.82
-19.72
-28.51
-18.26
-18.75
-24.60
-18.26
-18.75
-24.60
-17.77
-17.77
-22.65
-24.12
-18.75
-16.30
-22.16
-22.16
-16.79
-22.65
-20.21
-17.28
-15.82
-21.67
-23.14
-15.82
-17.28
-21.19
-20.70
-16.30
-16.79
-21.19
-20.70
-15.82
-19.72
-20.70
-15.33
-20.21
-20.70
-15.33
-18.26
-22.16
-18.75
-15.82
-21.67
-19.23
-16.30
-22.16
-16.30
-15.82
-19.72
-21.67
-15.82
-21.67
-19.72
-23.14
-4.58
-6.54
-12.89
-12.40
-16.30
-10.44
-15.82
-15.33
-11.91
-18.26
-9.96
-13.86
-17.77
-11.91
-16.30
-21.19
-14.84
-9.96
-16.79
-20.21
-14.84
-11.91
-16.30
-19.72
-16.30
-11.42
-14.84
-18.75
-20.70
-17.28
-12.89
-18.75
-20.70
-14.35
-10.93
-14.35
-8.98
-10.44
-13.37
-8.00
-10.44
-14.35
-7.51
-9.96
-14.35
-13.86
-8.00
-10.44
-13.37
-8.98
-12.40
-12.89
-8.98
-10.93
-14.84
-11.91
-9.47
-8.49
-11.91
-15.33
-11.42
-9.47
-16.30
-8.98
-12.40
-13.37
-8.00
-12.40
-13.37
-8.00
-10.93
-15.82
-8.98
-14.84
-13.37
-7.51
-8.98
-13.86
-14.35
-10.44
-14.84
-11.91
-10.44
-15.33
-8.98
-9.96
-16.79
-14.35
-11.91
-13.37
-13.86
-13.86
-10.44
-11.42
-12.40
-8.49
-10.44
-6.05
-9.96
-10.44
-11.42
-7.03
-5.56
-11.91
-8.00
-7.51
-9.47
-11.91
-8.49
-6.05
-10.93
-11.91
-11.42
-6.54
-3.12
-9.96
-4.58
-3.61
-6.54
-5.56
-7.03
-8.49
-9.47
-7.51
-8.98
-7.03
-8.49
-10.44
-10.93
-8.49
-10.44
-11.42
-9.47
-10.44
-8.98
-8.00
-8.49
-8.49
-11.42
-9.47
-8.49
-8.49
-10.93
-8.49
-8.98
-10.44
-11.42
-9.96
-8.49
-10.93
-9.96
-8.98
-10.93
-10.93
-10.93
-9.47
-8.49
-10.44
-11.91
-11.42
-11.42
-11.42
-8.98
-10.93
-11.42
-9.96
-10.44
-8.98
-11.91
-10.93
-8.49
-8.49
-9.96
-12.40
-12.40
-8.00
-8.49
-10.93
-8.00
-9.96
-8.49
-10.93
-10.44
-8.00
-8.49
-7.51
-8.49
-8.00
-7.51
-8.98
-7.51
-4.58
-7.51
-8.49
-9.47
-7.51
-6.05
-6.54
-8.49
-9.96
-8.49
-9.96
-8.98
-8.49
-8.00
-9.96
-8.00
-7.51
-8.00
-8.00
-8.49
-7.03
-6.05
-8.00
-6.54
-7.51
-8.98
-8.00
-7.51
-7.03
-8.49
-8.49
-7.03
-8.00
-9.96
-6.05
-5.56
-6.05
-7.03
-6.05
-8.98
-5.07
-6.05
-5.56
-5.56
-10.93
-9.96
-9.96
-9.96
-10.93
-11.91
-10.93
-10.44
-10.44
-12.40
-12.40
-11.91
-11.91
-10.93
-10.93
-10.44
-10.93
-10.93
-10.44
-12.40
-12.89
-12.40
-12.40
-10.93
-10.93
-10.44
-12.40
-12.89
-12.40
-10.44
-10.93
-5.07
-6.54
-6.05
-6.05
-7.51
-9.96
-10.44
-10.44
-9.47
-7.51
-7.51
-6.05
-8.00
-8.49
-6.05
-7.03
-6.54
-9.47
-7.51
-8.00
-7.03
-8.00
-9.96
-8.98
-9.47
-11.91
-10.44
-9.47
-12.40
-16.79
-11.91
-9.96
-13.37
-14.35
-15.82
-10.44
-10.93
-14.35
-10.93
-11.91
-12.89
-14.84
-13.37
-12.40
-11.42
-12.40
-11.42
-10.44
-10.93
-10.93
-14.84
-14.84
-12.89
-10.93
-15.33
-15.33
-13.86
-12.89
-13.37
-10.93
-11.91
-12.89
-11.91
-12.40
